p tw 1128 17861 8 
1 9 
1 11 
1 941 
1 943 
2 7 
2 10 
2 12 
2 942 
2 944 
3 8 
3 10 
3 933 
4 7 
4 9 
4 934 
5 9 
5 10 
5 935 
6 7 
6 8 
6 936 
11 18 
11 19 
11 943 
12 17 
12 20 
12 944 
13 18 
13 20 
13 23 
14 17 
14 19 
14 24 
15 19 
15 20 
15 25 
16 17 
16 18 
16 26 
21 28 
21 29 
21 31 
21 945 
21 947 
22 27 
22 30 
22 32 
22 946 
22 948 
23 28 
23 30 
24 27 
24 29 
25 29 
25 30 
26 27 
26 28 
31 38 
31 39 
31 947 
32 37 
32 40 
32 948 
33 38 
33 40 
33 43 
34 37 
34 39 
34 44 
35 39 
35 40 
35 45 
36 37 
36 38 
36 46 
41 48 
41 49 
41 51 
41 949 
41 951 
42 47 
42 50 
42 52 
42 950 
42 952 
43 48 
43 50 
44 47 
44 49 
45 49 
45 50 
46 47 
46 48 
51 58 
51 59 
51 951 
52 57 
52 60 
52 952 
53 58 
53 60 
53 63 
54 57 
54 59 
54 64 
55 59 
55 60 
55 65 
56 57 
56 58 
56 66 
61 68 
61 69 
61 71 
61 953 
61 955 
62 67 
62 70 
62 72 
62 954 
62 956 
63 68 
63 70 
64 67 
64 69 
65 69 
65 70 
66 67 
66 68 
71 78 
71 79 
71 955 
72 77 
72 80 
72 956 
73 78 
73 80 
73 83 
74 77 
74 79 
74 84 
75 79 
75 80 
75 85 
76 77 
76 78 
76 86 
81 88 
81 89 
81 91 
81 957 
81 959 
82 87 
82 90 
82 92 
82 958 
82 960 
83 88 
83 90 
84 87 
84 89 
85 89 
85 90 
86 87 
86 88 
91 98 
91 99 
91 959 
92 97 
92 100 
92 960 
93 98 
93 100 
93 103 
94 97 
94 99 
94 104 
95 99 
95 100 
95 105 
96 97 
96 98 
96 106 
101 108 
101 109 
101 111 
101 961 
101 963 
102 107 
102 110 
102 112 
102 962 
102 964 
103 108 
103 110 
104 107 
104 109 
105 109 
105 110 
106 107 
106 108 
111 118 
111 119 
111 963 
112 117 
112 120 
112 964 
113 118 
113 120 
113 123 
114 117 
114 119 
114 124 
115 119 
115 120 
115 125 
116 117 
116 118 
116 126 
121 128 
121 129 
121 131 
121 965 
121 967 
122 127 
122 130 
122 132 
122 966 
122 968 
123 128 
123 130 
124 127 
124 129 
125 129 
125 130 
126 127 
126 128 
131 138 
131 139 
131 967 
132 137 
132 140 
132 968 
133 138 
133 140 
133 143 
134 137 
134 139 
134 144 
135 139 
135 140 
135 145 
136 137 
136 138 
136 146 
141 148 
141 149 
141 151 
141 969 
141 971 
142 147 
142 150 
142 152 
142 970 
142 972 
143 148 
143 150 
144 147 
144 149 
145 149 
145 150 
146 147 
146 148 
151 158 
151 159 
151 971 
152 157 
152 160 
152 972 
153 158 
153 160 
153 163 
154 157 
154 159 
154 164 
155 159 
155 160 
155 165 
156 157 
156 158 
156 166 
161 168 
161 169 
161 171 
161 973 
161 975 
162 167 
162 170 
162 172 
162 974 
162 976 
163 168 
163 170 
164 167 
164 169 
165 169 
165 170 
166 167 
166 168 
171 178 
171 179 
171 975 
172 177 
172 180 
172 976 
173 178 
173 180 
173 183 
174 177 
174 179 
174 184 
175 179 
175 180 
175 185 
176 177 
176 178 
176 186 
181 188 
181 189 
181 191 
181 977 
181 979 
182 187 
182 190 
182 192 
182 978 
182 980 
183 188 
183 190 
184 187 
184 189 
185 189 
185 190 
186 187 
186 188 
191 198 
191 199 
191 979 
192 197 
192 200 
192 980 
193 198 
193 200 
193 203 
194 197 
194 199 
194 204 
195 199 
195 200 
195 205 
196 197 
196 198 
196 206 
201 208 
201 209 
201 211 
201 981 
201 983 
202 207 
202 210 
202 212 
202 982 
202 984 
203 208 
203 210 
204 207 
204 209 
205 209 
205 210 
206 207 
206 208 
211 218 
211 219 
211 983 
212 217 
212 220 
212 984 
213 218 
213 220 
213 223 
214 217 
214 219 
214 224 
215 219 
215 220 
215 225 
216 217 
216 218 
216 226 
221 228 
221 229 
221 231 
221 985 
221 987 
222 227 
222 230 
222 232 
222 986 
222 988 
223 228 
223 230 
224 227 
224 229 
225 229 
225 230 
226 227 
226 228 
231 238 
231 239 
231 987 
232 237 
232 240 
232 988 
233 238 
233 240 
233 243 
234 237 
234 239 
234 244 
235 239 
235 240 
235 245 
236 237 
236 238 
236 246 
241 248 
241 249 
241 251 
241 989 
241 991 
242 247 
242 250 
242 252 
242 990 
242 992 
243 248 
243 250 
244 247 
244 249 
245 249 
245 250 
246 247 
246 248 
251 258 
251 259 
251 991 
252 257 
252 260 
252 992 
253 258 
253 260 
253 263 
254 257 
254 259 
254 264 
255 259 
255 260 
255 265 
256 257 
256 258 
256 266 
261 268 
261 269 
261 271 
261 993 
261 995 
262 267 
262 270 
262 272 
262 994 
262 996 
263 268 
263 270 
264 267 
264 269 
265 269 
265 270 
266 267 
266 268 
271 278 
271 279 
271 995 
272 277 
272 280 
272 996 
273 278 
273 280 
273 283 
274 277 
274 279 
274 284 
275 279 
275 280 
275 285 
276 277 
276 278 
276 286 
281 288 
281 289 
281 291 
281 997 
281 999 
282 287 
282 290 
282 292 
282 998 
282 1000 
283 288 
283 290 
284 287 
284 289 
285 289 
285 290 
286 287 
286 288 
291 298 
291 299 
291 999 
292 297 
292 300 
292 1000 
293 298 
293 300 
293 303 
294 297 
294 299 
294 304 
295 299 
295 300 
295 305 
296 297 
296 298 
296 306 
301 308 
301 309 
301 311 
301 1001 
301 1003 
302 307 
302 310 
302 312 
302 1002 
302 1004 
303 308 
303 310 
304 307 
304 309 
305 309 
305 310 
306 307 
306 308 
311 318 
311 319 
311 1003 
312 317 
312 320 
312 1004 
313 318 
313 320 
313 323 
314 317 
314 319 
314 324 
315 319 
315 320 
315 325 
316 317 
316 318 
316 326 
321 328 
321 329 
321 331 
321 1005 
321 1007 
322 327 
322 330 
322 332 
322 1006 
322 1008 
323 328 
323 330 
324 327 
324 329 
325 329 
325 330 
326 327 
326 328 
331 338 
331 339 
331 1007 
332 337 
332 340 
332 1008 
333 338 
333 340 
333 343 
334 337 
334 339 
334 344 
335 339 
335 340 
335 345 
336 337 
336 338 
336 346 
341 348 
341 349 
341 351 
341 1009 
341 1011 
342 347 
342 350 
342 352 
342 1010 
342 1012 
343 348 
343 350 
344 347 
344 349 
345 349 
345 350 
346 347 
346 348 
351 358 
351 359 
351 1011 
352 357 
352 360 
352 1012 
353 358 
353 360 
353 363 
354 357 
354 359 
354 364 
355 359 
355 360 
355 365 
356 357 
356 358 
356 366 
361 368 
361 369 
361 371 
361 1013 
361 1015 
362 367 
362 370 
362 372 
362 1014 
362 1016 
363 368 
363 370 
364 367 
364 369 
365 369 
365 370 
366 367 
366 368 
371 378 
371 379 
371 1015 
372 377 
372 380 
372 1016 
373 378 
373 380 
373 383 
374 377 
374 379 
374 384 
375 379 
375 380 
375 385 
376 377 
376 378 
376 386 
381 388 
381 389 
381 391 
381 1017 
381 1019 
382 387 
382 390 
382 392 
382 1018 
382 1020 
383 388 
383 390 
384 387 
384 389 
385 389 
385 390 
386 387 
386 388 
391 398 
391 399 
391 1019 
392 397 
392 400 
392 1020 
393 398 
393 400 
393 403 
394 397 
394 399 
394 404 
395 399 
395 400 
395 405 
396 397 
396 398 
396 406 
401 408 
401 409 
401 411 
401 1021 
401 1023 
402 407 
402 410 
402 412 
402 1022 
402 1024 
403 408 
403 410 
404 407 
404 409 
405 409 
405 410 
406 407 
406 408 
411 418 
411 419 
411 1023 
412 417 
412 420 
412 1024 
413 418 
413 420 
413 423 
414 417 
414 419 
414 424 
415 419 
415 420 
415 425 
416 417 
416 418 
416 426 
421 428 
421 429 
421 431 
421 1025 
421 1027 
422 427 
422 430 
422 432 
422 1026 
422 1028 
423 428 
423 430 
424 427 
424 429 
425 429 
425 430 
426 427 
426 428 
431 438 
431 439 
431 1027 
432 437 
432 440 
432 1028 
433 438 
433 440 
433 443 
434 437 
434 439 
434 444 
435 439 
435 440 
435 445 
436 437 
436 438 
436 446 
441 448 
441 449 
441 451 
441 1029 
441 1031 
442 447 
442 450 
442 452 
442 1030 
442 1032 
443 448 
443 450 
444 447 
444 449 
445 449 
445 450 
446 447 
446 448 
451 458 
451 459 
451 1031 
452 457 
452 460 
452 1032 
453 458 
453 460 
453 463 
454 457 
454 459 
454 464 
455 459 
455 460 
455 465 
456 457 
456 458 
456 466 
461 468 
461 469 
461 471 
461 1033 
461 1035 
462 467 
462 470 
462 472 
462 1034 
462 1036 
463 468 
463 470 
464 467 
464 469 
465 469 
465 470 
466 467 
466 468 
471 478 
471 479 
471 1035 
472 477 
472 480 
472 1036 
473 478 
473 480 
473 483 
474 477 
474 479 
474 484 
475 479 
475 480 
475 485 
476 477 
476 478 
476 486 
481 488 
481 489 
481 491 
481 1037 
481 1039 
482 487 
482 490 
482 492 
482 1038 
482 1040 
483 488 
483 490 
484 487 
484 489 
485 489 
485 490 
486 487 
486 488 
491 498 
491 499 
491 1039 
492 497 
492 500 
492 1040 
493 498 
493 500 
493 503 
494 497 
494 499 
494 504 
495 499 
495 500 
495 505 
496 497 
496 498 
496 506 
501 508 
501 509 
501 511 
501 1041 
501 1043 
502 507 
502 510 
502 512 
502 1042 
502 1044 
503 508 
503 510 
504 507 
504 509 
505 509 
505 510 
506 507 
506 508 
511 518 
511 519 
511 1043 
512 517 
512 520 
512 1044 
513 518 
513 520 
513 523 
514 517 
514 519 
514 524 
515 519 
515 520 
515 525 
516 517 
516 518 
516 526 
521 528 
521 529 
521 531 
521 1045 
521 1047 
522 527 
522 530 
522 532 
522 1046 
522 1048 
523 528 
523 530 
524 527 
524 529 
525 529 
525 530 
526 527 
526 528 
531 538 
531 539 
531 1047 
532 537 
532 540 
532 1048 
533 538 
533 540 
533 543 
534 537 
534 539 
534 544 
535 539 
535 540 
535 545 
536 537 
536 538 
536 546 
541 548 
541 549 
541 551 
541 1049 
541 1051 
542 547 
542 550 
542 552 
542 1050 
542 1052 
543 548 
543 550 
544 547 
544 549 
545 549 
545 550 
546 547 
546 548 
551 558 
551 559 
551 1051 
552 557 
552 560 
552 1052 
553 558 
553 560 
553 563 
554 557 
554 559 
554 564 
555 559 
555 560 
555 565 
556 557 
556 558 
556 566 
561 568 
561 569 
561 571 
561 1053 
561 1055 
562 567 
562 570 
562 572 
562 1054 
562 1056 
563 568 
563 570 
564 567 
564 569 
565 569 
565 570 
566 567 
566 568 
571 578 
571 579 
571 1055 
572 577 
572 580 
572 1056 
573 578 
573 580 
573 583 
574 577 
574 579 
574 584 
575 579 
575 580 
575 585 
576 577 
576 578 
576 586 
581 588 
581 589 
581 591 
581 1057 
581 1059 
582 587 
582 590 
582 592 
582 1058 
582 1060 
583 588 
583 590 
584 587 
584 589 
585 589 
585 590 
586 587 
586 588 
591 598 
591 599 
591 1059 
592 597 
592 600 
592 1060 
593 598 
593 600 
593 603 
594 597 
594 599 
594 604 
595 599 
595 600 
595 605 
596 597 
596 598 
596 606 
601 608 
601 609 
601 611 
601 1061 
601 1063 
602 607 
602 610 
602 612 
602 1062 
602 1064 
603 608 
603 610 
604 607 
604 609 
605 609 
605 610 
606 607 
606 608 
611 618 
611 619 
611 1063 
612 617 
612 620 
612 1064 
613 618 
613 620 
613 623 
614 617 
614 619 
614 624 
615 619 
615 620 
615 625 
616 617 
616 618 
616 626 
621 628 
621 629 
621 631 
621 1065 
621 1067 
622 627 
622 630 
622 632 
622 1066 
622 1068 
623 628 
623 630 
624 627 
624 629 
625 629 
625 630 
626 627 
626 628 
631 638 
631 639 
631 1067 
632 637 
632 640 
632 1068 
633 638 
633 640 
633 643 
634 637 
634 639 
634 644 
635 639 
635 640 
635 645 
636 637 
636 638 
636 646 
641 648 
641 649 
641 651 
641 1069 
641 1071 
642 647 
642 650 
642 652 
642 1070 
642 1072 
643 648 
643 650 
644 647 
644 649 
645 649 
645 650 
646 647 
646 648 
651 658 
651 659 
651 1071 
652 657 
652 660 
652 1072 
653 658 
653 660 
653 663 
654 657 
654 659 
654 664 
655 659 
655 660 
655 665 
656 657 
656 658 
656 666 
661 668 
661 669 
661 671 
661 1073 
661 1075 
662 667 
662 670 
662 672 
662 1074 
662 1076 
663 668 
663 670 
664 667 
664 669 
665 669 
665 670 
666 667 
666 668 
671 678 
671 679 
671 1075 
672 677 
672 680 
672 1076 
673 678 
673 680 
673 683 
674 677 
674 679 
674 684 
675 679 
675 680 
675 685 
676 677 
676 678 
676 686 
681 688 
681 689 
681 691 
681 1077 
681 1079 
682 687 
682 690 
682 692 
682 1078 
682 1080 
683 688 
683 690 
684 687 
684 689 
685 689 
685 690 
686 687 
686 688 
691 698 
691 699 
691 1079 
692 697 
692 700 
692 1080 
693 698 
693 700 
693 703 
694 697 
694 699 
694 704 
695 699 
695 700 
695 705 
696 697 
696 698 
696 706 
701 708 
701 709 
701 711 
701 1081 
701 1083 
702 707 
702 710 
702 712 
702 1082 
702 1084 
703 708 
703 710 
704 707 
704 709 
705 709 
705 710 
706 707 
706 708 
711 718 
711 719 
711 1083 
712 717 
712 720 
712 1084 
713 718 
713 720 
713 723 
714 717 
714 719 
714 724 
715 719 
715 720 
715 725 
716 717 
716 718 
716 726 
721 728 
721 729 
721 731 
721 1085 
721 1087 
722 727 
722 730 
722 732 
722 1086 
722 1088 
723 728 
723 730 
724 727 
724 729 
725 729 
725 730 
726 727 
726 728 
731 738 
731 739 
731 1087 
732 737 
732 740 
732 1088 
733 738 
733 740 
733 743 
734 737 
734 739 
734 744 
735 739 
735 740 
735 745 
736 737 
736 738 
736 746 
741 748 
741 749 
741 751 
741 1089 
741 1091 
742 747 
742 750 
742 752 
742 1090 
742 1092 
743 748 
743 750 
744 747 
744 749 
745 749 
745 750 
746 747 
746 748 
751 758 
751 759 
751 1091 
752 757 
752 760 
752 1092 
753 758 
753 760 
753 763 
754 757 
754 759 
754 764 
755 759 
755 760 
755 765 
756 757 
756 758 
756 766 
761 768 
761 769 
761 771 
761 1093 
761 1095 
762 767 
762 770 
762 772 
762 1094 
762 1096 
763 768 
763 770 
764 767 
764 769 
765 769 
765 770 
766 767 
766 768 
771 778 
771 779 
771 1095 
772 777 
772 780 
772 1096 
773 778 
773 780 
773 783 
774 777 
774 779 
774 784 
775 779 
775 780 
775 785 
776 777 
776 778 
776 786 
781 788 
781 789 
781 791 
781 1097 
781 1099 
782 787 
782 790 
782 792 
782 1098 
782 1100 
783 788 
783 790 
784 787 
784 789 
785 789 
785 790 
786 787 
786 788 
791 798 
791 799 
791 1099 
792 797 
792 800 
792 1100 
793 798 
793 800 
793 803 
794 797 
794 799 
794 804 
795 799 
795 800 
795 805 
796 797 
796 798 
796 806 
801 808 
801 809 
801 811 
801 1101 
801 1103 
802 807 
802 810 
802 812 
802 1102 
802 1104 
803 808 
803 810 
804 807 
804 809 
805 809 
805 810 
806 807 
806 808 
811 818 
811 819 
811 1103 
812 817 
812 820 
812 1104 
813 818 
813 820 
813 823 
814 817 
814 819 
814 824 
815 819 
815 820 
815 825 
816 817 
816 818 
816 826 
821 828 
821 829 
821 831 
821 1105 
821 1107 
822 827 
822 830 
822 832 
822 1106 
822 1108 
823 828 
823 830 
824 827 
824 829 
825 829 
825 830 
826 827 
826 828 
831 838 
831 839 
831 1107 
832 837 
832 840 
832 1108 
833 838 
833 840 
833 843 
834 837 
834 839 
834 844 
835 839 
835 840 
835 845 
836 837 
836 838 
836 846 
841 848 
841 849 
841 851 
841 1109 
841 1111 
842 847 
842 850 
842 852 
842 1110 
842 1112 
843 848 
843 850 
844 847 
844 849 
845 849 
845 850 
846 847 
846 848 
851 858 
851 859 
851 1111 
852 857 
852 860 
852 1112 
853 858 
853 860 
853 863 
854 857 
854 859 
854 864 
855 859 
855 860 
855 865 
856 857 
856 858 
856 866 
861 868 
861 869 
861 871 
861 1113 
861 1115 
862 867 
862 870 
862 872 
862 1114 
862 1116 
863 868 
863 870 
864 867 
864 869 
865 869 
865 870 
866 867 
866 868 
871 878 
871 879 
871 1115 
872 877 
872 880 
872 1116 
873 878 
873 880 
873 883 
874 877 
874 879 
874 884 
875 879 
875 880 
875 885 
876 877 
876 878 
876 886 
881 888 
881 889 
881 891 
881 1117 
881 1119 
882 887 
882 890 
882 892 
882 1118 
882 1120 
883 888 
883 890 
884 887 
884 889 
885 889 
885 890 
886 887 
886 888 
891 898 
891 899 
891 1119 
892 897 
892 900 
892 1120 
893 898 
893 900 
893 903 
894 897 
894 899 
894 904 
895 899 
895 900 
895 905 
896 897 
896 898 
896 906 
901 908 
901 909 
901 911 
901 1121 
901 1123 
902 907 
902 910 
902 912 
902 1122 
902 1124 
903 908 
903 910 
904 907 
904 909 
905 909 
905 910 
906 907 
906 908 
911 918 
911 919 
911 1123 
912 917 
912 920 
912 1124 
913 918 
913 920 
913 923 
914 917 
914 919 
914 924 
915 919 
915 920 
915 925 
916 917 
916 918 
916 926 
921 928 
921 929 
921 931 
921 1125 
921 1127 
922 927 
922 930 
922 932 
922 1126 
922 1128 
923 928 
923 930 
924 927 
924 929 
925 929 
925 930 
926 927 
926 928 
931 938 
931 939 
931 1127 
932 937 
932 940 
932 1128 
933 938 
933 940 
934 937 
934 939 
935 939 
935 940 
936 937 
936 938 
941 942 
943 944 
945 946 
947 948 
949 950 
951 952 
953 954 
955 956 
957 958 
959 960 
961 962 
963 964 
965 966 
967 968 
969 970 
971 972 
973 974 
975 976 
977 978 
979 980 
981 982 
983 984 
985 986 
987 988 
989 990 
991 992 
993 994 
995 996 
997 998 
999 1000 
1001 1002 
1003 1004 
1005 1006 
1007 1008 
1009 1010 
1011 1012 
1013 1014 
1015 1016 
1017 1018 
1019 1020 
1021 1022 
1023 1024 
1025 1026 
1027 1028 
1029 1030 
1031 1032 
1033 1034 
1035 1036 
1037 1038 
1039 1040 
1041 1042 
1043 1044 
1045 1046 
1047 1048 
1049 1050 
1051 1052 
1053 1054 
1055 1056 
1057 1058 
1059 1060 
1061 1062 
1063 1064 
1065 1066 
1067 1068 
1069 1070 
1071 1072 
1073 1074 
1075 1076 
1077 1078 
1079 1080 
1081 1082 
1083 1084 
1085 1086 
1087 1088 
1089 1090 
1091 1092 
1093 1094 
1095 1096 
1097 1098 
1099 1100 
1101 1102 
1103 1104 
1105 1106 
1107 1108 
1109 1110 
1111 1112 
1113 1114 
1115 1116 
1117 1118 
1119 1120 
1121 1122 
1123 1124 
1125 1126 
1127 1128 
